7788
5110
7641
2234
9778
10070
8124
6221
3341
9355
9182
2480
7152
8592
2877
2257
8492
2025
6482
2989
5767
2839
2657
5736
6843
6560
9751
7847
6286
7737
6556
2512
4790
1234
10027
5464
5246
4959
7041
6954
4140
7631
5109
6350
3921
10176
6245
9107
1419
9914
922
